% Data for perfect square placement problem:
% http://www.hakank.org/minizinc/perfect_square_placement.mzn
% Data is originally from CSPLib:
% http://www.cs.st-andrews.ac.uk/~ianm/CSPLib/prob/prob009/results

% problem 194 
n = 593;
size = 25;
a = [13,14,15,35,48,51,55,67,73,79,83,91,94,105,109,116,119,124,133,150,171,173,196,217,226];

